(set-logic QF_SLIA)
(declare-fun var4 () String)
(declare-fun var35 () Int)
(declare-fun var22 () Int)
(declare-fun var37 () Int)
(declare-fun var16 () String)
(declare-fun var5 () String)
(declare-fun var20 () Int)
(declare-fun var1 () String)
(declare-fun var6 () String)
(declare-fun var26 () Int)
(declare-fun var32 () Int)
(declare-fun var14 () String)
(declare-fun var8 () String)
(declare-fun var10 () String)
(declare-fun var0 () String)
(declare-fun var12 () String)
(declare-fun var13 () String)
(declare-fun var38 () Int)
(declare-fun var36 () Int)
(declare-fun var25 () Int)
(declare-fun var11 () String)
(declare-fun var9 () String)
(assert (<= 2 var20))
(assert (< var22 var32))
(assert (< (str.indexof var1 var1 var26) (str.len var11)))
(assert (< var38 3))
(assert (str.contains (str.replace "t:xiABf3?V@_T|&>.g{7+n0Xs&{ogC5ibql~{k<S-X$#7=sH|6Kj/M>l+Ed{p1IetGD3WgYVzx{{H4p@>$IC#|dulp{u$Et&BibS" var9 var9) (str.at var0 var36)))
(assert (> (str.indexof var14 "&<!Ko5KQ3F3UrAgvr!<:U?*hbDNYgRqhF&I4s3|X|#t-gN)uyNvH+JMMht&T0q+U'FZ1W%2Zbd2L~?Qk',>NLOnu+0]A0.Ac,9H!" var32) (str.len var4)))
(assert (str.suffixof (str.at var12 var25) (str.replace var8 var10 var6)))
(assert (>= (str.indexof var6 "N<#-r;2zT>lp*mH|!J%s|O!am!gW9RU?)'jt5GCKw]6lxDI.Y\\\\!R6F>.b1E_LHO""[q1M=wP].c;7vAV7EOjx1vpv&2nPnIZoBd&X" var35) (str.indexof (str.replace var14 var4 var5) (str.at var14 var37) (str.len var16))))
(assert (>= (str.len var16) (str.indexof "/OTxs3V\\\\DV/7{ulFzTPXL+u-I0>t_5AQyL@^[o-)veC)8}oh2FnPWZ0*M02Ge6PtKp4O|}i]|)@j2]FaGz1]`zDasO:jAy3I;z^?" "/OTxs3V\\\\DV/7{ulFzTPXL+u-I0>t_5AQyL@^[o-)veC)8}oh2FnPWZ0*M02Ge6PtKp4O|}i]|)@j2]FaGz1]`zDasO:jAy3I;z^?" (str.indexof var13 var6 var38))))
(assert (not (str.contains "csyfEW*<<!kc;WVP"")':TO[I{4ZJ6K1$y5[g3x0MmP#BKO{qk~J^O7#FVOZdaKUf?_oWN}aj>Ov3-]9`t|\\\\-JQ1:iiTRCToLp5>;" var12)))
(check-sat)
